NAME: sim-grid-B-65
TYPE: TSP
COMMENT: Semi-regular Grid
DIMENSION: 65
EDGE_WEIGHT_TYPE: EUC_2D
NODE_COORD_SECTION
1 200 50
2 650 50
3 800 50
4 1250 50
5 200 100
6 650 100
7 800 100
8 950 100
9 1100 100
10 1250 100
11 1550 100
12 50 250
13 500 250
14 650 250
15 800 250
16 950 250
17 1100 250
18 1550 250
19 200 300
20 350 300
21 500 300
22 650 300
23 800 300
24 1100 300
25 1250 300
26 1400 300
27 50 450
28 200 450
29 350 450
30 500 450
31 650 450
32 1100 450
33 1250 450
34 1400 450
35 50 500
36 200 500
37 650 500
38 800 500
39 1100 500
40 1250 500
41 1400 500
42 1550 500
43 50 650
44 300 650
45 450 650
46 500 650
47 650 650
48 700 650
49 850 650
50 900 650
51 1050 650
52 1250 650
53 1300 650
54 1450 650
55 250 700
56 300 700
57 450 700
58 650 700
59 700 700
60 850 700
61 900 700
62 1050 700
63 1250 700
64 1300 700
65 1500 700
EOF
